ALGO = All
EDIFF = 1e-05
EDIFFG = -0.02
ENCUT = 520
IBRION = 2
ISIF = 3
ISMEAR = 0
ISPIN = 2
ISYM = 0
KPAR = 1
LASPH = True
LCHARG = True
LORBIT = 11
LREAL = Auto
LWAVE = True
MAGMOM = 8*0.0
NCORE = 32
NELM = 500
NSW = 250
POTIM = 0.25
PREC = Accurate
SIGMA = 0.05
TIME = 0.2
