Mg4 O4
1.0
   4.1940027853522395    0.0000000000000000    0.0000000000000003
   0.0000000000000007    4.1940027853522395    0.0000000000000003
   0.0000000000000000    0.0000000000000000    4.1940027853522395
Mg O
4 4
direct
   0.0000000000000000    0.0000000000000000    0.0000000000000000 Mg
  -0.0000000000000000    0.5000000000000000    0.4999999999999999 Mg
   0.5000000000000000    0.0000000000000000    0.4999999999999999 Mg
   0.5000000000000000    0.5000000000000000    0.0000000000000000 Mg
   0.0000000000000000    0.0000000000000000    0.5000000000000000 O
  -0.0000000000000000    0.5000000000000000    0.0000000000000000 O
   0.5000000000000000    0.0000000000000000    0.0000000000000000 O
   0.5000000000000000    0.5000000000000000    0.5000000000000000 O
