ALGO = All
EDIFF = 1e-06
EDIFFG = -0.01
ENAUG = 1360
ENCUT = 680
IBRION = 2
ISIF = 3
ISMEAR = 0
ISPIN = 2
ISYM = 0
KPAR = 1
KSPACING = 0.25
LAECHG = False
LASPH = True
LCHARG = True
LELF = False
LMAXMIX = 4
LMIXTAU = True
LORBIT = 11
LREAL = Auto
LVTOT = False
LWAVE = True
MAGMOM = 8*0.0 8*5.0 16*0.0
METAGGA = R2scan
NCORE = 32
NELM = 500
NSW = 250
POTIM = 0.25
PREC = Accurate
SIGMA = 0.05
TIME = 0.2
