Mg Zn Co Ni O 
 1.0000000000000000
     8.3880055707044789    0.0000000000000000    0.0000000000000006
     0.0000000000000014    8.3880055707044789    0.0000000000000006
     0.0000000000000000    0.0000000000000000    4.1940027853522395
 Mg  Zn  Co  Ni  O  
   4   4   4   4  16
Direct
  0.2500000000000000  0.2500000000000000  0.0000000000000000
  0.0000000000000000  0.5000000000000000  0.0000000000000000
  0.0000000000000000  0.7500000000000000  0.5000000000000000
  0.7500000000000000  0.5000000000000000  0.4999999999999999
  0.2500000000000000  0.0000000000000000  0.4999999999999999
  0.2500000000000000  0.5000000000000000  0.5000000000000000
  0.7500000000000000  0.0000000000000000  0.5000000000000000
  0.7500000000000001  0.7500000000000000  0.0000000000000000
  0.2500000000000001  0.7500000000000000  0.0000000000000000
  0.7500000000000000  0.2500000000000000  0.0000000000000000
  0.5000000000000000  0.5000000000000000  0.0000000000000000
  0.5000000000000000  0.7500000000000000  0.4999999999999999
  0.0000000000000000  0.0000000000000000  0.0000000000000000
  0.0000000000000000  0.2500000000000000  0.4999999999999999
  0.5000000000000000  0.0000000000000000  0.0000000000000000
  0.4999999999999999  0.2500000000000000  0.5000000000000000
  0.0000000000000000  0.0000000000000000  0.5000000000000000
  0.0000000000000000  0.2500000000000000  0.0000000000000000
  0.2500000000000000  0.0000000000000000  0.0000000000000000
  0.2500000000000000  0.2500000000000000  0.5000000000000000
  0.0000000000000000  0.5000000000000000  0.5000000000000000
  0.0000000000000000  0.7500000000000000  0.0000000000000000
  0.2500000000000000  0.5000000000000000  0.0000000000000000
  0.2500000000000001  0.7500000000000000  0.5000000000000001
  0.5000000000000000  0.0000000000000000  0.5000000000000000
  0.4999999999999999  0.2500000000000000  0.0000000000000000
  0.7500000000000000  0.0000000000000000  0.0000000000000000
  0.7500000000000000  0.2500000000000000  0.5000000000000001
  0.5000000000000000  0.5000000000000000  0.4999999999999999
  0.5000000000000000  0.7500000000000000  0.0000000000000000
  0.7500000000000000  0.5000000000000000  0.0000000000000000
  0.7500000000000001  0.7500000000000000  0.5000000000000000
