Mg Zn Co Ni O 
 1.0000000000000000
     8.3880055707044789    0.0000000000000000    0.0000000000000006
     0.0000000000000014    8.3880055707044789    0.0000000000000006
     0.0000000000000000    0.0000000000000000    4.1940027853522395
 Mg  Zn  Co  Ni  O  
   4   4   4   4  16
Direct
  0.2499329010977883  0.2486997195655755  0.0018167890370725
  0.0004590974271613  0.5030067654480755  0.0048668613380714
 -0.0010149430228590  0.7499489849737144  0.4905116769582673
  0.7486156960432483  0.5002781235026994  0.4988367317281504
  0.2494554158499299 -0.0012348737675433  0.4969829693987189
  0.2525932910499868  0.4982007262355175  0.4984112964235006
  0.7483253440330508 -0.0015676089579891  0.4948448296176255
  0.7507808616152307  0.7525109854610806  0.0010430658893601
  0.2486985635318535  0.7472757799602229  0.0036182077428626
  0.7502036132356097  0.2509253251376354  0.0005562319976874
  0.4969518921092869  0.5035906923630828  0.0042235624572885
  0.5015011672096036  0.7490814697174342  0.4944127299417542
  0.0028856513515379 -0.0027040192261069  0.0017022404851799
  0.0007990474090393  0.2492346772643711  0.4933154099284173
  0.5011464271605194  0.0026898544353429 -0.0057407434966270
  0.5025642340159064  0.2475617199107453  0.5031097330066211
  0.0039296765943052  0.0023292739194629  0.5034931976378668
 -0.0008547020208546  0.2437885240027621  0.0062723850735340
  0.2488308169792679  0.0023822777279635  0.0012459201538889
  0.2474457623921002  0.2498716400044855  0.4949595950852970
  0.0031337580401483  0.5026430109452984  0.5045987153772225
 -0.0012781897236791  0.7477106730374243 -0.0013778245239189
  0.2480052003017366  0.5004473231076529  0.0059978472712910
  0.2474330223702793  0.7493740112829023  0.4994128205089136
  0.5015914308448354  0.0000325330017634  0.4990505096125790
  0.4998357402473975  0.2527497456529423 -0.0046947344554100
  0.7505792187703063 -0.0021927202540977  0.0023393090390109
  0.7545546630945238  0.2505715490046342  0.5004680055656616
  0.5019983671225772  0.4955574616532344  0.5035324998029648
  0.4996078784745160  0.7527643888074306  0.0009393972331456
  0.7514667829697410  0.4967982261598517  0.0042393007288141
  0.7505617065812300  0.7483991274425857  0.4953812311899742
